NAME: Golden_10
TYPE: CVRP
COMMENT: 741.56
DIMENSION: 324
CAPACITY: 1000
VEHICLES: 16
EDGE_WEIGHT_TYPE: FUNCTION
EDGE_WEIGHT_FORMAT: EUC_2D
NODE_COORD_TYPE: TWOD_COORDS
NODE_COORD_SECTION
1 -1.00000 -16.00000
2 1.00000 -16.00000
3 -2.00000 -15.00000
4 0.00000 -15.00000
5 2.00000 -15.00000
6 -3.00000 -14.00000
7 -1.00000 -14.00000
8 1.00000 -14.00000
9 3.00000 -14.00000
10 -4.00000 -13.00000
11 -2.00000 -13.00000
12 0.00000 -13.00000
13 2.00000 -13.00000
14 4.00000 -13.00000
15 -5.00000 -12.00000
16 -3.00000 -12.00000
17 -1.00000 -12.00000
18 1.00000 -12.00000
19 3.00000 -12.00000
20 5.00000 -12.00000
21 -6.00000 -11.00000
22 -4.00000 -11.00000
23 -2.00000 -11.00000
24 0.00000 -11.00000
25 2.00000 -11.00000
26 4.00000 -11.00000
27 6.00000 -11.00000
28 -7.00000 -10.00000
29 -5.00000 -10.00000
30 -3.00000 -10.00000
31 -1.00000 -10.00000
32 1.00000 -10.00000
33 3.00000 -10.00000
34 5.00000 -10.00000
35 7.00000 -10.00000
36 -8.00000 -9.00000
37 -6.00000 -9.00000
38 -4.00000 -9.00000
39 -2.00000 -9.00000
40 0.00000 -9.00000
41 2.00000 -9.00000
42 4.00000 -9.00000
43 6.00000 -9.00000
44 8.00000 -9.00000
45 -9.00000 -8.00000
46 -7.00000 -8.00000
47 -5.00000 -8.00000
48 -3.00000 -8.00000
49 -1.00000 -8.00000
50 1.00000 -8.00000
51 3.00000 -8.00000
52 5.00000 -8.00000
53 7.00000 -8.00000
54 9.00000 -8.00000
55 -10.00000 -7.00000
56 -8.00000 -7.00000
57 -6.00000 -7.00000
58 -4.00000 -7.00000
59 -2.00000 -7.00000
60 0.00000 -7.00000
61 2.00000 -7.00000
62 4.00000 -7.00000
63 6.00000 -7.00000
64 8.00000 -7.00000
65 10.00000 -7.00000
66 -11.00000 -6.00000
67 -9.00000 -6.00000
68 -7.00000 -6.00000
69 -5.00000 -6.00000
70 -3.00000 -6.00000
71 -1.00000 -6.00000
72 1.00000 -6.00000
73 3.00000 -6.00000
74 5.00000 -6.00000
75 7.00000 -6.00000
76 9.00000 -6.00000
77 11.00000 -6.00000
78 -12.00000 -5.00000
79 -10.00000 -5.00000
80 -8.00000 -5.00000
81 -6.00000 -5.00000
82 -4.00000 -5.00000
83 -2.00000 -5.00000
84 0.00000 -5.00000
85 2.00000 -5.00000
86 4.00000 -5.00000
87 6.00000 -5.00000
88 8.00000 -5.00000
89 10.00000 -5.00000
90 12.00000 -5.00000
91 -13.00000 -4.00000
92 -11.00000 -4.00000
93 -9.00000 -4.00000
94 -7.00000 -4.00000
95 -5.00000 -4.00000
96 -3.00000 -4.00000
97 -1.00000 -4.00000
98 1.00000 -4.00000
99 3.00000 -4.00000
100 5.00000 -4.00000
101 7.00000 -4.00000
102 9.00000 -4.00000
103 11.00000 -4.00000
104 13.00000 -4.00000
105 -14.00000 -3.00000
106 -12.00000 -3.00000
107 -10.00000 -3.00000
108 -8.00000 -3.00000
109 -6.00000 -3.00000
110 -4.00000 -3.00000
111 -2.00000 -3.00000
112 0.00000 -3.00000
113 2.00000 -3.00000
114 4.00000 -3.00000
115 6.00000 -3.00000
116 8.00000 -3.00000
117 10.00000 -3.00000
118 12.00000 -3.00000
119 14.00000 -3.00000
120 -15.00000 -2.00000
121 -13.00000 -2.00000
122 -11.00000 -2.00000
123 -9.00000 -2.00000
124 -7.00000 -2.00000
125 -5.00000 -2.00000
126 -3.00000 -2.00000
127 -1.00000 -2.00000
128 1.00000 -2.00000
129 3.00000 -2.00000
130 5.00000 -2.00000
131 7.00000 -2.00000
132 9.00000 -2.00000
133 11.00000 -2.00000
134 13.00000 -2.00000
135 15.00000 -2.00000
136 -16.00000 -1.00000
137 -14.00000 -1.00000
138 -12.00000 -1.00000
139 -10.00000 -1.00000
140 -8.00000 -1.00000
141 -6.00000 -1.00000
142 -4.00000 -1.00000
143 -2.00000 -1.00000
144 0.00000 -1.00000
145 2.00000 -1.00000
146 4.00000 -1.00000
147 6.00000 -1.00000
148 8.00000 -1.00000
149 10.00000 -1.00000
150 12.00000 -1.00000
151 14.00000 -1.00000
152 16.00000 -1.00000
153 -17.00000 0.00000
154 -15.00000 0.00000
155 -13.00000 0.00000
156 -11.00000 0.00000
157 -9.00000 0.00000
158 -7.00000 0.00000
159 -5.00000 0.00000
160 -3.00000 0.00000
161 -1.00000 0.00000
162 1.00000 0.00000
163 3.00000 0.00000
164 5.00000 0.00000
165 7.00000 0.00000
166 9.00000 0.00000
167 11.00000 0.00000
168 13.00000 0.00000
169 15.00000 0.00000
170 17.00000 0.00000
171 -16.00000 1.00000
172 -14.00000 1.00000
173 -12.00000 1.00000
174 -10.00000 1.00000
175 -8.00000 1.00000
176 -6.00000 1.00000
177 -4.00000 1.00000
178 -2.00000 1.00000
179 0.00000 1.00000
180 2.00000 1.00000
181 4.00000 1.00000
182 6.00000 1.00000
183 8.00000 1.00000
184 10.00000 1.00000
185 12.00000 1.00000
186 14.00000 1.00000
187 16.00000 1.00000
188 -15.00000 2.00000
189 -13.00000 2.00000
190 -11.00000 2.00000
191 -9.00000 2.00000
192 -7.00000 2.00000
193 -5.00000 2.00000
194 -3.00000 2.00000
195 -1.00000 2.00000
196 1.00000 2.00000
197 3.00000 2.00000
198 5.00000 2.00000
199 7.00000 2.00000
200 9.00000 2.00000
201 11.00000 2.00000
202 13.00000 2.00000
203 15.00000 2.00000
204 -14.00000 3.00000
205 -12.00000 3.00000
206 -10.00000 3.00000
207 -8.00000 3.00000
208 -6.00000 3.00000
209 -4.00000 3.00000
210 -2.00000 3.00000
211 0.00000 3.00000
212 2.00000 3.00000
213 4.00000 3.00000
214 6.00000 3.00000
215 8.00000 3.00000
216 10.00000 3.00000
217 12.00000 3.00000
218 14.00000 3.00000
219 -13.00000 4.00000
220 -11.00000 4.00000
221 -9.00000 4.00000
222 -7.00000 4.00000
223 -5.00000 4.00000
224 -3.00000 4.00000
225 -1.00000 4.00000
226 1.00000 4.00000
227 3.00000 4.00000
228 5.00000 4.00000
229 7.00000 4.00000
230 9.00000 4.00000
231 11.00000 4.00000
232 13.00000 4.00000
233 -12.00000 5.00000
234 -10.00000 5.00000
235 -8.00000 5.00000
236 -6.00000 5.00000
237 -4.00000 5.00000
238 -2.00000 5.00000
239 0.00000 5.00000
240 2.00000 5.00000
241 4.00000 5.00000
242 6.00000 5.00000
243 8.00000 5.00000
244 10.00000 5.00000
245 12.00000 5.00000
246 -11.00000 6.00000
247 -9.00000 6.00000
248 -7.00000 6.00000
249 -5.00000 6.00000
250 -3.00000 6.00000
251 -1.00000 6.00000
252 1.00000 6.00000
253 3.00000 6.00000
254 5.00000 6.00000
255 7.00000 6.00000
256 9.00000 6.00000
257 11.00000 6.00000
258 -10.00000 7.00000
259 -8.00000 7.00000
260 -6.00000 7.00000
261 -4.00000 7.00000
262 -2.00000 7.00000
263 0.00000 7.00000
264 2.00000 7.00000
265 4.00000 7.00000
266 6.00000 7.00000
267 8.00000 7.00000
268 10.00000 7.00000
269 -9.00000 8.00000
270 -7.00000 8.00000
271 -5.00000 8.00000
272 -3.00000 8.00000
273 -1.00000 8.00000
274 1.00000 8.00000
275 3.00000 8.00000
276 5.00000 8.00000
277 7.00000 8.00000
278 9.00000 8.00000
279 -8.00000 9.00000
280 -6.00000 9.00000
281 -4.00000 9.00000
282 -2.00000 9.00000
283 0.00000 9.00000
284 2.00000 9.00000
285 4.00000 9.00000
286 6.00000 9.00000
287 8.00000 9.00000
288 -7.00000 10.00000
289 -5.00000 10.00000
290 -3.00000 10.00000
291 -1.00000 10.00000
292 1.00000 10.00000
293 3.00000 10.00000
294 5.00000 10.00000
295 7.00000 10.00000
296 -6.00000 11.00000
297 -4.00000 11.00000
298 -2.00000 11.00000
299 0.00000 11.00000
300 2.00000 11.00000
301 4.00000 11.00000
302 6.00000 11.00000
303 -5.00000 12.00000
304 -3.00000 12.00000
305 -1.00000 12.00000
306 1.00000 12.00000
307 3.00000 12.00000
308 5.00000 12.00000
309 -4.00000 13.00000
310 -2.00000 13.00000
311 0.00000 13.00000
312 2.00000 13.00000
313 4.00000 13.00000
314 -3.00000 14.00000
315 -1.00000 14.00000
316 1.00000 14.00000
317 3.00000 14.00000
318 -2.00000 15.00000
319 0.00000 15.00000
320 2.00000 15.00000
321 -1.00000 16.00000
322 1.00000 16.00000
323 0.00000 17.00000
DEMAND_SECTION
1 300
2 300
3 180
4 300
5 180
6 128
7 180
8 180
9 128
10 100
11 128
12 180
13 128
14 100
15 81
16 100
17 128
18 128
19 100
20 81
21 69
22 81
23 100
24 128
25 100
26 81
27 69
28 60
29 69
30 81
31 100
32 100
33 81
34 69
35 60
36 52
37 60
38 69
39 81
40 100
41 81
42 69
43 60
44 52
45 47
46 52
47 60
48 69
49 81
50 81
51 69
52 60
53 52
54 47
55 42
56 47
57 52
58 60
59 69
60 81
61 69
62 60
63 52
64 47
65 42
66 39
67 42
68 47
69 52
70 60
71 69
72 69
73 60
74 52
75 47
76 42
77 39
78 36
79 39
80 42
81 47
82 52
83 60
84 69
85 60
86 52
87 47
88 42
89 39
90 36
91 33
92 36
93 39
94 42
95 47
96 52
97 60
98 60
99 52
100 47
101 42
102 39
103 36
104 33
105 31
106 33
107 36
108 39
109 42
110 47
111 52
112 60
113 52
114 47
115 42
116 39
117 36
118 33
119 31
120 29
121 31
122 33
123 36
124 39
125 42
126 47
127 52
128 52
129 47
130 42
131 39
132 36
133 33
134 31
135 29
136 27
137 29
138 31
139 33
140 36
141 39
142 42
143 47
144 52
145 47
146 42
147 39
148 36
149 33
150 31
151 29
152 27
153 25
154 27
155 29
156 31
157 33
158 36
159 39
160 42
161 47
162 47
163 42
164 39
165 36
166 33
167 31
168 29
169 27
170 25
171 25
172 27
173 29
174 31
175 33
176 36
177 39
178 42
179 47
180 42
181 39
182 36
183 33
184 31
185 29
186 27
187 25
188 25
189 27
190 29
191 31
192 33
193 36
194 39
195 42
196 42
197 39
198 36
199 33
200 31
201 29
202 27
203 25
204 25
205 27
206 29
207 31
208 33
209 36
210 39
211 42
212 39
213 36
214 33
215 31
216 29
217 27
218 25
219 25
220 27
221 29
222 31
223 33
224 36
225 39
226 39
227 36
228 33
229 31
230 29
231 27
232 25
233 25
234 27
235 29
236 31
237 33
238 36
239 39
240 36
241 33
242 31
243 29
244 27
245 25
246 25
247 27
248 29
249 31
250 33
251 36
252 36
253 33
254 31
255 29
256 27
257 25
258 25
259 27
260 29
261 31
262 33
263 36
264 33
265 31
266 29
267 27
268 25
269 25
270 27
271 29
272 31
273 33
274 33
275 31
276 29
277 27
278 25
279 25
280 27
281 29
282 31
283 33
284 31
285 29
286 27
287 25
288 25
289 27
290 29
291 31
292 31
293 29
294 27
295 25
296 25
297 27
298 29
299 31
300 29
301 27
302 25
303 25
304 27
305 29
306 29
307 27
308 25
309 25
310 27
311 29
312 27
313 25
314 25
315 27
316 27
317 25
318 25
319 27
320 25
321 25
322 25
323 25
DEPOT_SECTION
0.00000 -17.00000
-1
EOF
